! inflows forOpenSHAFT Example_01; Q* = 1.1
! 
! first data line: JuncID(k), Ntimes(k),Mult(k)
! second line begins InflowTime(i,k), Inflow(i,k)
! and so on for Ntimes(k) lines
! repeat Nseries times
1	233	0.04380787
0	169.9081218
10	172.3705584
20	174.3053299
30	175.8967005
40	177.169797
50	177.0525381
60	176.6253807
70	177.1572335
80	177.6137056
90	178.2879442
100	182.1532995
110	199.0343909
120	216.1416244
130	228.3574873
140	236.4986041
150	241.9888325
160	246.0133249
170	249.0494924
180	251.486802
190	253.4927665
200	255.2055838
210	256.7550761
220	258.225
230	260.3021574
240	267.346066
250	342.2703046
260	589.7074873
270	709.0770305
280	803.1856599
290	883.3530457
300	955.647335
310	1040.580457
320	2461.159264
330	2468.458629
340	2466.197208
350	2473.986548
360	2476.428046
370	2477.805838
380	2469.488832
390	2453.294543
400	2441.338325
410	2364.609137
420	2293.621447
430	2206.18401
440	2160.218528
450	2072.961168
460	2015.265609
470	1859.18566
480	1765.043528
490	1693.637056
500	1633.981599
510	1559.827919
520	1500.582868
530	1449.550127
540	1391.87132
550	1294.55901
560	1201.560152
570	1125.237183
580	1063.38731
590	1011.466751
600	966.8958122
610	925.5620558
620	890.2964467
630	861.4088832
640	835.5449239
650	812.1182741
660	790.923731
670	771.8817259
680	754.9629442
690	735.761802
700	705.6765228
710	678.3928934
720	655.2887056
730	635.777665
740	618.4191624
750	603.0624365
760	589.2468274
770	576.7085025
780	565.3888325
790	554.973731
800	545.4003807
810	536.4677665
820	528.1758883
830	520.4661168
840	512.6265228
850	498.735533
860	484.6016497
870	472.5030457
880	462.0167513
890	452.7323604
900	444.4446701
910	436.9945431
920	430.0678934
930	423.7233503
940	417.8604061
950	412.453934
960	407.3866751
970	402.6335025
980	398.2111675
990	393.6967005
1000	384.9148477
1010	373.6579949
1020	363.9841371
1030	355.7048223
1040	348.4431472
1050	342.0190355
1060	336.3277919
1070	331.0804569
1080	326.2225888
1090	321.6913706
1100	317.4993655
1110	313.5670051
1120	309.8859137
1130	306.4016497
1140	303.1309645
1150	300.0194162
1160	297.0837563
1170	294.2988579
1180	291.6312183
1190	289.1101523
1200	286.7063452
1210	284.3988579
1220	282.2044416
1230	280.1189086
1240	278.1213198
1250	276.2158629
1260	274.3983503
1270	272.6478426
1280	270.9852792
1290	269.3813452
1300	267.8486041
1310	266.3744924
1320	264.9506345
1330	263.5895939
1340	262.2829949
1350	261.0224619
1360	259.8163706
1370	258.660533
1380	257.538198
1390	256.4703046
1400	255.4359137
1410	254.443401
1420	253.4927665
1430	252.5588832
1440	251.6752538
1450	250.8209391
1460	249.9959391
1470	249.2044416
1480	248.4422589
1490	247.6926396
1500	246.9890863
1510	246.2813452
1520	245.6112944
1530	244.9621827
1540	244.3256345
1550	243.7142132
1560	243.1362944
1570	242.5625635
1580	242.0097716
1590	241.3606599
1600	238.8019036
1610	232.3401015
1620	226.3975888
1630	221.2298223
1640	216.9205584
1650	213.1096447
1660	209.801269
1670	206.823731
1680	204.1602792
1690	201.6936548
1700	199.4196701
1710	197.3006345
1720	195.3323604
1730	193.4729695
1740	191.7266497
1750	190.0557107
1760	188.4643401
1770	186.9441624
1780	185.4993655
1790	184.1048223
1800	182.7647208
1810	181.4832487
1820	180.2520305
1830	179.0501269
1840	177.8901015
1850	176.7761421
1860	175.7082487
1870	174.6864213
1880	173.6939086
1890	172.7348985
1900	171.8093909
1910	170.9173858
1920	170.0546954
1930	169.2045685
1940	168.3670051
1950	167.5713198
1960	166.8133249
1970	166.0888325
1980	165.3810914
1990	164.656599
2000	163.9279188
2010	163.2201777
2020	162.5459391
2030	161.905203
2040	161.2519036
2050	160.6069797
2060	159.9871827
2070	159.4385787
2080	158.8732234
2090	158.2785533
2100	157.713198
2110	157.1813452
2120	156.6746193
2130	156.1972081
2140	155.7616751
2150	155.2884518
2160	154.7901015
2170	154.2833756
2180	153.793401
2190	153.3536802
2200	152.9390863
2210	152.5538071
2220	152.1517766
2230	151.7581218
2240	151.3812183
2250	150.9959391
2260	150.6148477
2270	150.2337563
2280	149.8694162
2290	149.5050761
2300	149.1532995
2310	148.8057107
3601	0
5	233	0.04380787
0	113.2720812	
10	114.9137056	
20	116.2035533	
30	117.264467	
40	118.113198	
50	118.0350254	
60	117.7502538	
70	118.1048223	
80	118.4091371	
90	118.8586294	
100	121.435533	
110	132.6895939	
120	144.0944162	
130	152.2383249	
140	157.665736	
150	161.3258883	
160	164.0088832	
170	166.0329949	
180	167.657868	
190	168.9951777	
200	170.1370558	
210	171.1700508	
220	172.15	
230	173.5347716	
240	178.2307107	
250	228.180203	
260	393.1383249	
270	472.7180203	
280	535.4571066	
290	588.9020305	
300	637.0982234	
310	693.7203046	
320	1640.772843	
330	1645.639086	
340	1644.131472	
350	1649.324365	
360	1650.95203	
370	1651.870558	
380	1646.325888	
390	1635.529695	
400	1627.558883	
410	1576.406091	
420	1529.080964	
430	1470.78934	
440	1440.145685	
450	1381.974112	
460	1343.510406	
470	1239.457107	
480	1176.695685	
490	1129.091371	
500	1089.321066	
510	1039.885279	
520	1000.388579	
530	966.3667513	
540	927.9142132	
550	863.0393401	
560	801.0401015	
570	750.1581218	
580	708.9248731	
590	674.3111675	
600	644.5972081	
610	617.0413706	
620	593.5309645	
630	574.2725888	
640	557.0299492	
650	541.4121827	
660	527.2824873	
670	514.5878173	
680	503.3086294	
690	490.507868	
700	470.4510152	
710	452.2619289	
720	436.8591371	
730	423.8517766	
740	412.2794416	
750	402.0416244	
760	392.8312183	
770	384.472335	
780	376.9258883	
790	369.9824873	
800	363.6002538	
810	357.6451777	
820	352.1172589	
830	346.9774112	
840	341.7510152	
850	332.4903553	
860	323.0677665	
870	315.0020305	
880	308.0111675	
890	301.8215736	
900	296.2964467	
910	291.3296954	
920	286.7119289	
930	282.4822335	
940	278.5736041	
950	274.9692893	
960	271.5911168	
970	268.422335	
980	265.4741117	
990	262.464467	
1000	256.6098985	
1010	249.1053299	
1020	242.6560914	
1030	237.1365482	
1040	232.2954315	
1050	228.0126904	
1060	224.2185279	
1070	220.7203046	
1080	217.4817259	
1090	214.4609137	
1100	211.6662437	
1110	209.0446701	
1120	206.5906091	
1130	204.2677665	
1140	202.0873096	
1150	200.0129442	
1160	198.0558376	
1170	196.1992386	
1180	194.4208122	
1190	192.7401015	
1200	191.1375635	
1210	189.5992386	
1220	188.1362944	
1230	186.7459391	
1240	185.4142132	
1250	184.1439086	
1260	182.9322335	
1270	181.7652284	
1280	180.6568528	
1290	179.5875635	
1300	178.565736	
1310	177.5829949	
1320	176.6337563	
1330	175.7263959	
1340	174.8553299	
1350	174.0149746	
1360	173.2109137	
1370	172.4403553	
1380	171.692132	
1390	170.980203	
1400	170.2906091	
1410	169.628934	
1420	168.9951777	
1430	168.3725888	
1440	167.7835025	
1450	167.2139594	
1460	166.6639594	
1470	166.1362944	
1480	165.6281726	
1490	165.1284264	
1500	164.6593909	
1510	164.1875635	
1520	163.7408629	
1530	163.3081218	
1540	162.8837563	
1550	162.4761421	
1560	162.0908629	
1570	161.7083756	
1580	161.3398477	
1590	160.9071066	
1600	159.201269	
1610	154.893401	
1620	150.9317259	
1630	147.4865482	
1640	144.6137056	
1650	142.0730964	
1660	139.8675127	
1670	137.8824873	
1680	136.1068528	
1690	134.4624365	
1700	132.9464467	
1710	131.5337563	
1720	130.2215736	
1730	128.9819797	
1740	127.8177665	
1750	126.7038071	
1760	125.6428934	
1770	124.6294416	
1780	123.6662437	
1790	122.7365482	
1800	121.8431472	
1810	120.9888325	
1820	120.1680203	
1830	119.3667513	
1840	118.593401	
1850	117.8507614	
1860	117.1388325	
1870	116.4576142	
1880	115.7959391	
1890	115.156599	
1900	114.5395939	
1910	113.9449239	
1920	113.369797	
1930	112.8030457	
1940	112.2446701	
1950	111.7142132	
1960	111.2088832	
1970	110.7258883	
1980	110.2540609	
1990	109.771066	
2000	109.2852792	
2010	108.8134518	
2020	108.3639594	
2030	107.936802	
2040	107.501269	
2050	107.0713198	
2060	106.6581218	
2070	106.2923858	
2080	105.9154822	
2090	105.5190355	
2100	105.142132	
2110	104.7875635	
2120	104.4497462	
2130	104.1314721	
2140	103.8411168	
2150	103.5256345	
2160	103.193401	
2170	102.8555838	
2180	102.528934	
2190	102.2357868	
2200	101.9593909	
2210	101.7025381	
2220	101.4345178	
2230	101.1720812	
2240	100.9208122	
2250	100.6639594	
2260	100.4098985	
2270	100.1558376	
2280	99.91294416	
2290	99.67005076	
2300	99.43553299	
2310	99.20380711	
3601	0	
7	233	0.04380787
0	67.96324873	
10	68.94822335	
20	69.72213198	
30	70.3586802	
40	70.86791878	
50	70.82101523	
60	70.65015228	
70	70.8628934	
80	71.04548223	
90	71.31517766	
100	72.8613198	
110	79.61375635	
120	86.45664975	
130	91.34299492	
140	94.59944162	
150	96.79553299	
160	98.40532995	
170	99.61979695	
180	100.5947208	
190	101.3971066	
200	102.0822335	
210	102.7020305	
220	103.29	
230	104.1208629	
240	106.9384264	
250	136.9081218	
260	235.8829949	
270	283.6308122	
280	321.274264	
290	353.3412183	
300	382.258934	
310	416.2321827	
320	984.4637056	
330	987.3834518	
340	986.4788832	
350	989.5946193	
360	990.5712183	
370	991.122335	
380	987.795533	
390	981.3178173	
400	976.5353299	
410	945.8436548	
420	917.4485787	
430	882.4736041	
440	864.0874112	
450	829.184467	
460	806.1062437	
470	743.674264	
480	706.0174112	
490	677.4548223	
500	653.5926396	
510	623.9311675	
520	600.2331472	
530	579.8200508	
540	556.7485279	
550	517.8236041	
560	480.6240609	
570	450.0948731	
580	425.3549239	
590	404.5867005	
600	386.7583249	
610	370.2248223	
620	356.1185787	
630	344.5635533	
640	334.2179695	
650	324.8473096	
660	316.3694924	
670	308.7526904	
680	301.9851777	
690	294.3047208	
700	282.2706091	
710	271.3571574	
720	262.1154822	
730	254.311066	
740	247.367665	
750	241.2249746	
760	235.698731	
770	230.683401	
780	226.155533	
790	221.9894924	
800	218.1601523	
810	214.5871066	
820	211.2703553	
830	208.1864467	
840	205.0506091	
850	199.4942132	
860	193.8406599	
870	189.0012183	
880	184.8067005	
890	181.0929442	
900	177.777868	
910	174.7978173	
920	172.0271574	
930	169.4893401	
940	167.1441624	
950	164.9815736	
960	162.9546701	
970	161.053401	
980	159.284467	
990	157.4786802	
1000	153.9659391	
1010	149.463198	
1020	145.5936548	
1030	142.2819289	
1040	139.3772589	
1050	136.8076142	
1060	134.5311168	
1070	132.4321827	
1080	130.4890355	
1090	128.6765482	
1100	126.9997462	
1110	125.426802	
1120	123.9543655	
1130	122.5606599	
1140	121.2523858	
1150	120.0077665	
1160	118.8335025	
1170	117.7195431	
1180	116.6524873	
1190	115.6440609	
1200	114.6825381	
1210	113.7595431	
1220	112.8817766	
1230	112.0475635	
1240	111.2485279	
1250	110.4863452	
1260	109.7593401	
1270	109.0591371	
1280	108.3941117	
1290	107.7525381	
1300	107.1394416	
1310	106.549797	
1320	105.9802538	
1330	105.4358376	
1340	104.913198	
1350	104.4089848	
1360	103.9265482	
1370	103.4642132	
1380	103.0152792	
1390	102.5881218	
1400	102.1743655	
1410	101.7773604	
1420	101.3971066	
1430	101.0235533	
1440	100.6701015	
1450	100.3283756	
1460	99.99837563	
1470	99.68177665	
1480	99.37690355	
1490	99.07705584	
1500	98.79563452	
1510	98.51253807	
1520	98.24451777	
1530	97.9848731	
1540	97.73025381	
1550	97.48568528	
1560	97.25451777	
1570	97.02502538	
1580	96.80390863	
1590	96.54426396	
1600	95.52076142	
1610	92.93604061	
1620	90.55903553	
1630	88.49192893	
1640	86.76822335	
1650	85.24385787	
1660	83.92050761	
1670	82.72949239	
1680	81.66411168	
1690	80.67746193	
1700	79.76786802	
1710	78.92025381	
1720	78.13294416	
1730	77.38918782	
1740	76.6906599	
1750	76.02228426	
1760	75.38573604	
1770	74.77766497	
1780	74.19974619	
1790	73.64192893	
1800	73.10588832	
1810	72.59329949	
1820	72.10081218	
1830	71.62005076	
1840	71.15604061	
1850	70.71045685	
1860	70.28329949	
1870	69.87456853	
1880	69.47756345	
1890	69.09395939	
1900	68.72375635	
1910	68.36695431	
1920	68.02187817	
1930	67.68182741	
1940	67.34680203	
1950	67.02852792	
1960	66.72532995	
1970	66.43553299	
1980	66.15243655	
1990	65.86263959	
2000	65.57116751	
2010	65.28807107	
2020	65.01837563	
2030	64.76208122	
2040	64.50076142	
2050	64.24279188	
2060	63.9948731	
2070	63.77543147	
2080	63.54928934	
2090	63.31142132	
2100	63.08527919	
2110	62.87253807	
2120	62.66984772	
2130	62.47888325	
2140	62.30467005	
2150	62.11538071	
2160	61.91604061	
2170	61.71335025	
2180	61.51736041	
2190	61.34147208	
2200	61.17563452	
2210	61.02152284	
2220	60.86071066	
2230	60.70324873	
2240	60.55248731	
2250	60.39837563	
2260	60.24593909	
2270	60.09350254	
2280	59.9477665	
2290	59.80203046	
2300	59.6613198	
2310	59.52228426	
3601	0	
8	233	0.04380787
0	26.43015228	
10	26.81319797	
20	27.11416244	
30	27.36170897	
40	27.55974619	
50	27.54150592	
60	27.47505922	
70	27.55779188	
80	27.62879865	
90	27.7336802	
100	28.3349577	
110	30.96090525	
120	33.62203046	
130	35.5222758	
140	36.78867174	
150	37.64270728	
160	38.26873942	
170	38.74103215	
180	39.1201692	
190	39.43220812	
200	39.69864636	
210	39.93967851	
220	40.16833333	
230	40.4914467	
240	41.58716582	
250	53.24204738	
260	91.7322758	
270	110.3008714	
280	124.9399915	
290	137.4104738	
300	148.6562521	
310	161.8680711	
320	382.8469966	
330	383.9824535	
340	383.6306768	
350	384.8423519	
360	385.2221404	
370	385.4364636	
380	384.1427073	
390	381.6235956	
400	379.7637394	
410	367.828088	
420	356.7855584	
430	343.1841794	
440	336.0339932	
450	322.4606261	
460	313.4857614	
470	289.2066582	
480	274.5623266	
490	263.4546531	
500	254.1749154	
510	242.6398985	
520	233.4240017	
530	225.4855753	
540	216.5133164	
550	201.375846	
560	186.909357	
570	175.0368951	
580	165.4158037	
590	157.3392724	
600	150.4060152	
610	143.9763198	
620	138.4905584	
630	133.9969374	
640	129.9736548	
650	126.3295093	
660	123.0325804	
670	120.0704907	
680	117.4386802	
690	114.4518359	
700	109.7719036	
710	105.5277834	
720	101.9337986	
730	98.89874788	
740	96.19853638	
750	93.80971235	
760	91.6606176	
770	89.71021151	
780	87.94937394	
790	86.32924704	
800	84.84005922	
810	83.45054146	
820	82.16069374	
830	80.96139594	
840	79.74190355	
850	77.58108291	
860	75.38247885	
870	73.50047377	
880	71.86927242	
890	70.42503384	
900	69.13583756	
910	67.97692893	
920	66.89945008	
930	65.91252115	
940	65.00050761	
950	64.15950085	
960	63.37126058	
970	62.63187817	
980	61.94395939	
990	61.24170897	
1000	59.87564298	
1010	58.12457699	
1020	56.61975465	
1030	55.33186125	
1040	54.20226734	
1050	53.20296108	
1060	52.31765651	
1070	51.5014044	
1080	50.74573604	
1090	50.04087986	
1100	49.38879019	
1110	48.77708968	
1120	48.20447547	
1130	47.66247885	
1140	47.15370558	
1150	46.66968697	
1160	46.21302876	
1170	45.77982234	
1180	45.36485618	
1190	44.97269036	
1200	44.59876481	
1210	44.23982234	
1220	43.8984687	
1230	43.57405245	
1240	43.26331641	
1250	42.96691201	
1260	42.68418782	
1270	42.41188663	
1280	42.15326565	
1290	41.90376481	
1300	41.66533841	
1310	41.43603215	
1320	41.21454315	
1330	41.00282572	
1340	40.79957699	
1350	40.60349408	
1360	40.41587986	
1370	40.23608291	
1380	40.06149746	
1390	39.89538071	
1400	39.73447547	
1410	39.5800846	
1420	39.43220812	
1430	39.28693739	
1440	39.14948393	
1450	39.01659052	
1460	38.88825719	
1470	38.76513536	
1480	38.6465736	
1490	38.52996616	
1500	38.42052453	
1510	38.31043147	
1520	38.20620135	
1530	38.10522843	
1540	38.00620981	
1550	37.91109983	
1560	37.82120135	
1570	37.73195431	
1580	37.64596447	
1590	37.54499154	
1600	37.14696277	
1610	36.14179357	
1620	35.21740271	
1630	34.41352792	
1640	33.74319797	
1650	33.15038917	
1660	32.63575296	
1670	32.17258037	
1680	31.75826565	
1690	31.37456853	
1700	31.02083756	
1710	30.69120981	
1720	30.38503384	
1730	30.09579526	
1740	29.82414552	
1750	29.56422166	
1760	29.31667513	
1770	29.08020305	
1780	28.85545685	
1790	28.63852792	
1800	28.43006768	
1810	28.23072758	
1820	28.03920474	
1830	27.85224196	
1840	27.67179357	
1850	27.498511	
1860	27.33239425	
1870	27.17344332	
1880	27.01905245	
1890	26.8698731	
1900	26.72590525	
1910	26.5871489	
1920	26.45295262	
1930	26.32071066	
1940	26.19042301	
1950	26.06664975	
1960	25.94873942	
1970	25.83604061	
1980	25.72594755	
1990	25.61324873	
2000	25.49989848	
2010	25.38980541	
2020	25.28492386	
2030	25.18525381	
2040	25.08362944	
2050	24.98330795	
2060	24.88689509	
2070	24.80155668	
2080	24.71361252	
2090	24.62110829	
2100	24.53316413	
2110	24.45043147	
2120	24.37160745	
2130	24.29734349	
2140	24.22959391	
2150	24.15598139	
2160	24.07846024	
2170	23.99963621	
2180	23.92341794	
2190	23.85501692	
2200	23.79052453	
2210	23.73059222	
2220	23.66805415	
2230	23.60681895	
2240	23.54818951	
2250	23.48825719	
2260	23.42897631	
2270	23.36969543	
2280	23.3130203	
2290	23.25634518	
2300	23.20162437	
2310	23.14755499	
3601	0	
